p cnf 109 264
1 0
2 0
3 0
4 0
5 0
-6 0
7 0
8 0
9 0
10 0
11 -12 0
-13 11 0
12 13 -11 0
1 -11 0
-1 11 0
14 -11 0
-14 11 0
-15 16 0
-17 16 0
16 -18 0
-19 16 0
16 -20 0
-21 16 0
-22 16 0
23 0
2 -16 0
-2 16 0
-17 24 0
-18 24 0
-19 24 0
-20 24 0
-21 24 0
-22 24 0
17 18 19 20 21 22 -24 0
25 -24 0
-25 24 0
-18 26 0
-19 26 0
-20 26 0
-21 26 0
-22 26 0
18 19 20 21 22 -26 0
27 -26 0
-27 26 0
-19 28 0
-20 28 0
-21 28 0
-22 28 0
19 20 21 22 -28 0
29 -28 0
-29 28 0
30 -28 0
-30 28 0
31 -28 0
-31 28 0
32 -28 0
-32 28 0
33 -34 0
33 -35 0
-36 33 0
33 -37 0
33 -38 0
-39 33 0
33 -40 0
41 0
3 -33 0
-3 33 0
-35 42 0
-36 42 0
-37 42 0
-38 42 0
-39 42 0
-40 42 0
43 0
44 -42 0
-44 42 0
-36 45 0
-37 45 0
-38 45 0
-39 45 0
-40 45 0
36 37 38 39 40 -45 0
4 -45 0
-4 45 0
-37 46 0
-38 46 0
-39 46 0
-40 46 0
37 38 39 40 -46 0
47 -46 0
-47 46 0
48 -46 0
-48 46 0
49 -46 0
-49 46 0
50 -46 0
-50 46 0
51 -52 0
51 -53 0
-54 51 0
52 53 54 -51 0
5 -51 0
-5 51 0
-53 55 0
-54 55 0
53 54 -55 0
56 -55 0
-56 55 0
6 -54 0
-6 54 0
57 -58 0
-59 57 0
-60 57 0
-61 57 0
57 -62 0
58 59 60 61 62 -57 0
7 -57 0
-7 57 0
-59 63 0
-60 63 0
-61 63 0
-62 63 0
59 60 61 62 -63 0
64 -63 0
-64 63 0
-60 65 0
-61 65 0
-62 65 0
60 61 62 -65 0
66 -65 0
-66 65 0
67 -65 0
-67 65 0
68 -65 0
-68 65 0
-12 69 0
-13 69 0
-70 69 0
-71 69 0
-72 69 0
69 -73 0
12 13 70 71 72 73 -69 0
8 -69 0
-8 69 0
-12 74 0
-13 74 0
-71 74 0
-72 74 0
-73 74 0
12 13 71 72 73 -74 0
75 -74 0
-75 74 0
-12 76 0
-13 76 0
-72 76 0
-73 76 0
12 13 72 73 -76 0
77 -76 0
-77 76 0
-12 78 0
-13 78 0
-73 78 0
12 13 73 -78 0
79 -78 0
-79 78 0
-60 80 0
-61 80 0
-62 80 0
-81 80 0
-82 80 0
-83 80 0
80 -84 0
85 0
9 -80 0
-9 80 0
-60 86 0
-61 86 0
-62 86 0
-82 86 0
-83 86 0
-84 86 0
87 0
88 -86 0
-88 86 0
-60 89 0
-61 89 0
-62 89 0
-83 89 0
-84 89 0
60 61 62 83 84 -89 0
90 -89 0
-90 89 0
-60 91 0
-61 91 0
-62 91 0
-84 91 0
60 61 62 84 -91 0
92 -91 0
-92 91 0
-12 93 0
-13 93 0
93 -94 0
-95 93 0
-96 93 0
12 13 94 95 96 -93 0
10 -93 0
-10 93 0
-12 97 0
-13 97 0
-95 97 0
-96 97 0
12 13 95 96 -97 0
98 -97 0
-98 97 0
-12 99 0
-13 99 0
-96 99 0
12 13 96 -99 0
100 -99 0
-100 99 0
12 -101 0
-101 -13 0
-101 -15 0
-101 -17 0
18 -101 0
-101 -19 0
20 -101 0
-101 -21 0
-101 -22 0
34 -101 0
35 -101 0
-101 -36 0
37 -101 0
38 -101 0
-101 -39 0
40 -101 0
52 -101 0
53 -101 0
-101 -54 0
58 -101 0
-101 -59 0
-101 -60 0
-101 -61 0
62 -101 0
-101 -70 0
-101 -71 0
-101 -72 0
73 -101 0
-101 -81 0
-101 -82 0
-101 -83 0
84 -101 0
94 -101 0
-101 -95 0
-101 -96 0
101 0
-102 0
-103 0
-104 0
-105 0
-106 0
-107 0
-108 0
-109 0
